param N := 14;
param b := 60;
param c:=
1 23
2 12
3 -6
4 3.4
5 8.4
6 40
7 11
8 23
9 12
10  -6
11 3.4
12 8.4
13 40 
14 11;

param lb:=
1 1
2 1
3 0
4 0
5 7
6 0
7 2
8 1
9 1
10 0
11 0
12 7
13 0
14 2;
param ub:=
1 4
2 3
3 2
4 2
5 30
6 30
7 13
8 4
9 3
10 2
11 2
12 30
13 30
14 13;